
Gurobi 10.0.0 (win64) logging started Thu Jun 13 08:50:04 2024

Set parameter LogFile to value "C:\Users\ealvarezq\Documents\GitHub\Comillas\Models\JointResearch\05. Models\06.Benchmarking\D.Representative_days_based_on_RES_and_Demand\RTS24_mod2_ByStages_nc200/openStarNet_RTS24_mod2_ByStages_nc200.log"
Set parameter Method to value 2
Set parameter MIPFocus to value 1
Set parameter Presolve to value 2
Set parameter RINS to value 100
Set parameter MIPGap to value 0.01
Set parameter Threads to value 9
Set parameter TimeLimit to value 259200
Set parameter IterationLimit to value 760000000
Gurobi Optimizer version 10.0.0 build v10.0.0rc2 (win64)

CPU model: Intel(R) Core(TM) i7-8700 CPU @ 3.20GHz, instruction set [SSE2|AVX|AVX2]
Thread count: 6 physical cores, 12 logical processors, using up to 9 threads

Optimize a model with 71003 rows, 47934 columns and 193563 nonzeros
Model fingerprint: 0x4b497c57
Variable types: 47913 continuous, 21 integer (21 binary)
Coefficient statistics:
  Matrix range     [4e-03, 3e+02]
  Objective range  [1e+00, 1e+00]
  Bounds range     [4e-05, 3e+00]
  RHS range        [4e-05, 3e+00]
Presolve removed 42289 rows and 24307 columns
Presolve time: 0.27s
Presolved: 28714 rows, 23627 columns, 103713 nonzeros
Variable types: 23606 continuous, 21 integer (21 binary)
Root relaxation presolved: 28714 rows, 23627 columns, 103713 nonzeros

Root barrier log...

Ordering time: 0.01s

Barrier statistics:
 Dense cols : 21
 AA' NZ     : 1.926e+05
 Factor NZ  : 5.348e+05 (roughly 26 MB of memory)
 Factor Ops : 1.189e+07 (less than 1 second per iteration)
 Threads    : 8

                  Objective                Residual
Iter       Primal          Dual         Primal    Dual     Compl     Time
   0   6.72238222e+05 -7.53852292e+07  5.37e+00 7.24e+01  3.19e+03     0s
   1   1.07913607e+05 -1.96508566e+07  7.18e-01 5.65e-09  4.48e+02     0s
   2   4.06580988e+04 -4.62157611e+06  1.63e-01 1.15e-09  8.53e+01     0s
   3   2.08368831e+04 -5.21919738e+05  4.97e-03 6.71e-11  8.21e+00     0s
   4   9.69926572e+03 -6.20009489e+04  3.16e-04 7.56e-12  1.07e+00     1s
   5   2.68709868e+03 -1.31159127e+04  6.87e-05 1.57e-12  2.36e-01     1s
   6   4.13408891e+02 -3.30572183e+03  1.06e-06 6.82e-13  5.56e-02     1s
   7   3.02326514e+02 -1.34613048e+03  4.36e-07 4.63e-13  2.46e-02     1s
   8   1.80850857e+02 -4.32703751e+02  1.33e-07 6.91e-13  9.17e-03     1s
   9   1.07763074e+02 -7.40556406e+01  3.10e-08 7.43e-13  2.72e-03     1s
  10   8.29813670e+01  2.75247869e+00  1.25e-08 6.93e-13  1.20e-03     1s
  11   7.58303521e+01  2.50271655e+01  7.99e-09 2.98e-13  7.59e-04     1s
  12   7.31764994e+01  3.94648438e+01  6.31e-09 3.26e-13  5.04e-04     1s
  13   6.92016231e+01  4.38500273e+01  3.94e-09 4.58e-13  3.79e-04     1s
  14   6.77316575e+01  5.03757441e+01  3.09e-09 3.92e-13  2.59e-04     1s
  15   6.63519337e+01  5.30866660e+01  2.30e-09 3.81e-13  1.98e-04     1s
  16   6.54351400e+01  5.49495127e+01  1.77e-09 4.48e-13  1.57e-04     1s
  17   6.47687005e+01  5.92810946e+01  1.41e-09 3.46e-13  8.20e-05     1s
  18   6.39734144e+01  6.02109688e+01  8.96e-10 2.31e-13  5.62e-05     1s
  19   6.36610134e+01  6.06538760e+01  7.02e-10 5.37e-13  4.49e-05     1s
  20   6.32215018e+01  6.12427152e+01  4.28e-10 2.87e-13  2.96e-05     1s
  21   6.31258112e+01  6.12972149e+01  3.70e-10 2.95e-13  2.73e-05     1s
  22   6.29629432e+01  6.16691808e+01  2.70e-10 4.26e-13  1.93e-05     1s
  23   6.27957059e+01  6.19096813e+01  1.59e-10 3.60e-13  1.32e-05     1s
  24   6.27110775e+01  6.20810969e+01  1.05e-10 3.56e-13  9.41e-06     1s
  25   6.26462198e+01  6.22275249e+01  6.43e-11 2.47e-13  6.26e-06     1s
  26   6.26211566e+01  6.23159723e+01  5.02e-11 2.67e-13  4.56e-06     1s
  27   6.26077586e+01  6.23540440e+01  4.61e-11 3.40e-13  3.79e-06     1s
  28   6.25881330e+01  6.23853204e+01  4.16e-11 3.44e-13  3.03e-06     1s
  29   6.25742812e+01  6.24106625e+01  5.83e-11 3.58e-13  2.44e-06     1s
  30   6.25665357e+01  6.24143738e+01  3.95e-11 3.65e-13  2.27e-06     1s
  31   6.25558779e+01  6.24302223e+01  8.29e-11 3.50e-13  1.88e-06     1s
  32   6.25534902e+01  6.24545075e+01  7.87e-11 3.10e-13  1.48e-06     1s
  33   6.25442732e+01  6.24878942e+01  9.01e-11 3.56e-13  8.42e-07     1s
  34   6.25400288e+01  6.25033009e+01  6.27e-11 2.60e-13  5.49e-07     1s
  35   6.25395206e+01  6.25058239e+01  3.62e-11 3.84e-13  5.03e-07     1s
  36   6.25390037e+01  6.25159462e+01  5.77e-11 3.56e-13  3.45e-07     1s
  37   6.25380091e+01  6.25235758e+01  3.93e-11 3.31e-13  2.16e-07     1s
  38   6.25373256e+01  6.25298968e+01  4.38e-11 2.78e-13  1.11e-07     1s
  39   6.25370458e+01  6.25328501e+01  5.11e-11 4.10e-13  6.27e-08     1s
  40   6.25369957e+01  6.25357158e+01  8.06e-10 2.54e-13  1.91e-08     1s
  41   6.25369618e+01  6.25365181e+01  2.36e-09 3.26e-13  6.63e-09     1s
  42   6.25369240e+01  6.25368567e+01  4.78e-09 7.21e-13  1.01e-09     1s
  43   6.25369156e+01  6.25369143e+01  2.95e-10 1.34e-12  2.06e-11     1s
  44   6.25369154e+01  6.25369154e+01  4.33e-11 6.03e-13  3.76e-14     1s

Barrier solved model in 44 iterations and 1.08 seconds (0.95 work units)
Optimal objective 6.25369154e+01


Root relaxation: objective 6.253692e+01, 4412 iterations, 0.97 seconds (0.77 work units)

    Nodes    |    Current Node    |     Objective Bounds      |     Work
 Expl Unexpl |  Obj  Depth IntInf | Incumbent    BestBd   Gap | It/Node Time

     0     0   62.53692    0   17          -   62.53692      -     -    1s
H    0     0                     113.6560146   62.53692  45.0%     -    2s
     0     0   63.70248    0   12  113.65601   63.70248  44.0%     -    3s
H    0     0                      95.9699068   63.70248  33.6%     -    3s
     0     0   63.72439    0   12   95.96991   63.72439  33.6%     -    3s
     0     0   63.96934    0   17   95.96991   63.96934  33.3%     -    4s
     0     0   64.00428    0   14   95.96991   64.00428  33.3%     -    5s
     0     0   64.01392    0   15   95.96991   64.01392  33.3%     -    5s
     0     0   64.31569    0   12   95.96991   64.31569  33.0%     -    6s
     0     0   64.31966    0   13   95.96991   64.31966  33.0%     -    6s
     0     0   64.32018    0   12   95.96991   64.32018  33.0%     -    6s
     0     0   64.32076    0   12   95.96991   64.32076  33.0%     -    7s
     0     0   64.32082    0   12   95.96991   64.32082  33.0%     -    7s
     0     0   64.37908    0   10   95.96991   64.37908  32.9%     -    7s
     0     0   64.39039    0   11   95.96991   64.39039  32.9%     -    7s
     0     0   64.39039    0   11   95.96991   64.39039  32.9%     -    7s
     0     0   65.05727    0   12   95.96991   65.05727  32.2%     -    9s
H    0     0                      86.8884877   65.05727  25.1%     -   11s
H    0     0                      81.5936170   65.05727  20.3%     -   39s
     0     2   65.05727    0   12   81.59362   65.05727  20.3%     -   39s
     1     4   65.05727    1   11   81.59362   65.05727  20.3%  1430   40s
    33    43   68.49405    6   15   81.59362   66.82219  18.1%  1459   45s
    70    74   78.56514   10   11   81.59362   66.82219  18.1%  1475   50s
    91    82     cutoff   11        81.59362   66.82219  18.1%  1371   58s
   101    87     cutoff   11        81.59362   66.82219  18.1%  1367   62s
   127   107   73.36915    5    8   81.59362   66.89818  18.0%  1348   65s
   193   125   76.95201    7   13   81.59362   66.89818  18.0%  1240   70s
   250   133   75.35193    7   12   81.59362   66.89818  18.0%  1183   77s
   295   149     cutoff    9        81.59362   66.89818  18.0%  1139   80s
   360   173   79.13116   10   10   81.59362   66.89818  18.0%  1096   85s
   418   174     cutoff   11        81.59362   66.89818  18.0%  1046   90s
   515   176   77.68990    8   13   81.59362   67.42881  17.4%  1000   96s
   577   186     cutoff    8        81.59362   68.17455  16.4%   975  101s
   641   199   73.54792    8   12   81.59362   68.17455  16.4%   972  106s
   713   201     cutoff   10        81.59362   68.93608  15.5%   971  112s
   765   223   75.60476    8    9   81.59362   68.93608  15.5%   946  115s
   797   222   79.68029   11    9   81.59362   68.93608  15.5%   943  197s
H  800   222                      81.5523581   68.93608  15.5%   940  197s
H  804   222                      81.4129072   68.93608  15.3%   941  197s
   840   212     cutoff   12        81.41291   73.00971  10.3%   932  203s
   866   226   76.20693    8    8   81.41291   73.72928  9.44%   929  207s
   927   242     cutoff   11        81.41291   74.29532  8.74%   914  211s
   994   237   80.56584   10   10   81.41291   74.78190  8.14%   893  254s
  1062   244   77.40166   13    8   81.41291   74.88013  8.02%   873  259s
  1158   267   77.38519   10   11   81.41291   75.14971  7.69%   855  264s
  1245   262   79.75197   15    6   81.41291   75.64625  7.08%   842  269s
  1365   270     cutoff   15        81.41291   76.06236  6.57%   814  274s
  1491   281     cutoff   19        81.41291   76.34730  6.22%   783  345s
  1588   285     cutoff   16        81.41291   76.46986  6.07%   767  379s
  1720   290   80.30417   11   10   81.41291   76.57384  5.94%   745  385s
  1890   290   81.26931   16    5   81.41291   76.72248  5.76%   721  403s
  1932   285     cutoff   17        81.41291   76.94439  5.49%   722  411s
  2104   268   81.37821   12    9   81.41291   77.32083  5.03%   706  419s
  2290   259   80.79317   17    4   81.41291   77.72427  4.53%   689  492s
  2451   250   80.89903   12    9   81.41291   77.93728  4.27%   673  504s
  2524   219   81.14606   13    8   81.41291   78.20403  3.94%   668  514s
  2813    70     cutoff   14        81.41291   78.71116  3.32%   639  522s

Cutting planes:
  Gomory: 1
  Implied bound: 192
  MIR: 784
  Relax-and-lift: 111

Explored 3276 nodes (1929034 simplex iterations) in 524.77 seconds (1020.77 work units)
Thread count was 9 (of 12 available processors)

Solution count 6: 81.4129 81.5524 81.5936 ... 113.656

Optimal solution found (tolerance 1.00e-02)
Best objective 8.141290724086e+01, best bound 8.141290724086e+01, gap 0.0000%

Gurobi 10.0.0 (win64) logging started Thu Jun 13 08:59:19 2024

Set parameter LogFile to value "C:\Users\ealvarezq\Documents\GitHub\Comillas\Models\JointResearch\05. Models\06.Benchmarking\D.Representative_days_based_on_RES_and_Demand\RTS24_mod2_ByStages_nc200/openStarNet_RTS24_mod2_ByStages_nc200.log"
Set parameter Method to value 2
Set parameter MIPFocus to value 1
Set parameter Presolve to value 2
Set parameter RINS to value 100
Set parameter MIPGap to value 0.01
Set parameter Threads to value 9
Set parameter TimeLimit to value 259200
Set parameter IterationLimit to value 760000000
Gurobi Optimizer version 10.0.0 build v10.0.0rc2 (win64)

CPU model: Intel(R) Core(TM) i7-8700 CPU @ 3.20GHz, instruction set [SSE2|AVX|AVX2]
Thread count: 6 physical cores, 12 logical processors, using up to 9 threads

Optimize a model with 71003 rows, 47913 columns and 176742 nonzeros
Model fingerprint: 0xd01ec880
Coefficient statistics:
  Matrix range     [4e-03, 3e+02]
  Objective range  [1e+00, 1e+00]
  Bounds range     [4e-05, 3e+00]
  RHS range        [4e-05, 2e+01]
Presolve removed 59803 rows and 27748 columns
Presolve time: 0.09s
Presolved: 11200 rows, 20515 columns, 50522 nonzeros

Ordering time: 0.00s

Barrier statistics:
 AA' NZ     : 2.925e+04
 Factor NZ  : 1.109e+05 (roughly 11 MB of memory)
 Factor Ops : 1.625e+06 (less than 1 second per iteration)
 Threads    : 9

                  Objective                Residual
Iter       Primal          Dual         Primal    Dual     Compl     Time
   0   6.89570017e+06 -5.72871939e+07  5.12e+01 1.01e+02  2.68e+04     0s
   1   3.86479574e+05 -4.28413905e+07  2.59e+00 3.18e-12  2.34e+03     0s
   2   6.78224388e+04 -8.57892168e+06  3.71e-01 5.91e-12  3.33e+02     0s
   3   3.04963811e+04 -1.74145444e+06  5.93e-02 3.18e-12  5.62e+01     0s
   4   1.96571514e+04 -5.46870645e+05  6.21e-03 3.30e-12  1.60e+01     0s
   5   1.19454743e+04 -2.18742017e+05  5.03e-04 1.36e-12  6.41e+00     0s
   6   5.17679023e+03 -3.83396562e+04  6.08e-05 1.99e-12  1.21e+00     0s
   7   1.67841123e+03 -5.36567012e+03  1.32e-05 8.81e-13  1.95e-01     0s
   8   3.75538813e+02 -1.59814356e+03  4.97e-07 6.47e-13  5.48e-02     0s
   9   2.22552738e+02 -2.02970951e+02  1.14e-07 8.54e-13  1.18e-02     0s
  10   1.36449256e+02  1.43090838e+01  3.56e-08 7.58e-13  3.39e-03     0s
  11   9.84241948e+01  6.21683176e+01  1.02e-08 5.50e-13  1.01e-03     0s
  12   9.08888548e+01  7.44959043e+01  5.59e-09 8.65e-13  4.55e-04     0s
  13   8.51763162e+01  7.87447696e+01  2.17e-09 6.48e-13  1.78e-04     0s
  14   8.32501371e+01  8.05007873e+01  1.04e-09 5.87e-13  7.63e-05     0s
  15   8.19812337e+01  8.10649695e+01  3.11e-10 8.62e-13  2.54e-05     0s
  16   8.15309140e+01  8.13590869e+01  5.88e-10 4.89e-13  4.77e-06     0s
  17   8.14342307e+01  8.13919559e+01  7.87e-10 9.25e-13  1.17e-06     0s
  18   8.14133741e+01  8.14120202e+01  8.25e-10 7.51e-13  3.76e-08     0s
  19   8.14129127e+01  8.14128943e+01  3.23e-09 9.19e-13  5.12e-10     0s
  20   8.14129073e+01  8.14129072e+01  1.31e-08 5.48e-13  5.26e-13     0s
  21   8.14129072e+01  8.14129072e+01  7.22e-11 9.10e-13  7.29e-18     0s

Barrier solved model in 21 iterations and 0.24 seconds (0.23 work units)
Optimal objective 8.14129072e+01

Crossover log...

    2621 DPushes remaining with DInf 0.0000000e+00                 0s
       0 DPushes remaining with DInf 0.0000000e+00                 0s

     632 PPushes remaining with PInf 0.0000000e+00                 0s
       0 PPushes remaining with PInf 0.0000000e+00                 0s

  Push phase complete: Pinf 0.0000000e+00, Dinf 1.9709686e-13      0s

Iteration    Objective       Primal Inf.    Dual Inf.      Time
     719    8.1412907e+01   0.000000e+00   0.000000e+00      0s

Use crossover to convert LP symmetric solution to basic solution...
Crossover log...

       0 DPushes remaining with DInf 0.0000000e+00                 0s

     476 PPushes remaining with PInf 0.0000000e+00                 0s
       0 PPushes remaining with PInf 0.0000000e+00                 0s

  Push phase complete: Pinf 0.0000000e+00, Dinf 2.1776680e-13      0s

Iteration    Objective       Primal Inf.    Dual Inf.      Time
    1273    8.1412907e+01   0.000000e+00   0.000000e+00      0s

Solved in 1273 iterations and 0.37 seconds (0.29 work units)
Optimal objective  8.141290724e+01
